c description: Subset cardinality formula for Random regular bipartite with (7,7) vertices and left degree 4 + 1 random edges
c generator: CNFgen (0.9.0)
c copyright: (C) 2012-2020 Massimo Lauria <massimo.lauria@uniroma1.it>
c url: https://massimolauria.net/cnfgen
c command line: cnfgen subsetcard 7
c
p cnf 29 68
1 2 3 0
1 2 4 0
1 3 4 0
2 3 4 0
5 6 7 0
5 6 8 0
5 7 8 0
6 7 8 0
9 10 11 0
9 10 12 0
9 11 12 0
10 11 12 0
13 14 15 0
13 14 16 0
13 14 17 0
13 15 16 0
13 15 17 0
13 16 17 0
14 15 16 0
14 15 17 0
14 16 17 0
15 16 17 0
18 19 20 0
18 19 21 0
18 20 21 0
19 20 21 0
22 23 24 0
22 23 25 0
22 24 25 0
23 24 25 0
26 27 28 0
26 27 29 0
26 28 29 0
27 28 29 0
-1 -5 -9 0
-1 -5 -13 0
-1 -9 -13 0
-5 -9 -13 0
-6 -10 -14 0
-6 -10 -18 0
-6 -14 -18 0
-10 -14 -18 0
-2 -19 -22 0
-2 -19 -26 0
-2 -22 -26 0
-19 -22 -26 0
-3 -7 -15 0
-3 -7 -20 0
-3 -7 -27 0
-3 -15 -20 0
-3 -15 -27 0
-3 -20 -27 0
-7 -15 -20 0
-7 -15 -27 0
-7 -20 -27 0
-15 -20 -27 0
-8 -11 -23 0
-8 -11 -28 0
-8 -23 -28 0
-11 -23 -28 0
-12 -16 -24 0
-12 -16 -29 0
-12 -24 -29 0
-16 -24 -29 0
-4 -17 -21 0
-4 -17 -25 0
-4 -21 -25 0
-17 -21 -25 0
